Minimize
  - 10 y_0 - 4 y_1 - 6 y_2 - 7 y_3 - 4 y_4 - 9 y_5 - 8 y_6 - 9 y_7 - 6 y_8
   - 7 y_9 - 7 y_10 - 7 y_11 - 8 y_12 - 4 y_13 - y_14 - 5 y_16 - 12 y_17
   - 6 y_18 - 4 y_19 + 62 x_0_1 + 71 x_0_5 + 114 x_0_6 + 104 x_0_7
   + 58 x_0_9 + 40 x_0_11 + 53 x_0_13 + 85 x_0_14 + 62 x_0_16 + 49 x_0_18
   + 79 x_0_19 + 29 x_1_2 + 60 x_1_5 + 32 x_1_11 + 13 x_1_13 + 23 x_1_14
   + 26 x_1_18 + 44 x_2_3 + 22 x_2_4 + 30 x_2_5 + 50 x_2_7 + 8 x_2_9
   + 36 x_2_13 + 59 x_2_15 + 10 x_2_16 + 22 x_2_19 + 50 x_3_4 + 93 x_3_7
   + 46 x_3_9 + 7 x_3_10 + 26 x_3_11 + 61 x_3_14 + 43 x_3_16 + 69 x_3_17
   + 33 x_3_18 + 59 x_3_19 + 61 x_4_6 + 60 x_4_7 + 25 x_4_8 + 35 x_4_11
   + 28 x_4_13 + 36 x_4_15 + 13 x_4_16 + 85 x_4_17 + 12 x_4_19 + 47 x_5_6
   + 34 x_5_7 + 24 x_5_9 + 23 x_5_12 + 74 x_5_14 + 37 x_5_18 + 56 x_6_9
   + 108 x_6_10 + 75 x_6_11 + 24 x_6_12 + 77 x_6_14 + 68 x_6_18 + 61 x_7_8
   + 67 x_7_11 + 84 x_7_13 + 75 x_7_17 + 61 x_7_18 + 40 x_8_10 + 10 x_8_11
   + 47 x_8_12 + 27 x_8_13 + 62 x_8_17 + 29 x_8_19 + 53 x_9_10 + 34 x_9_12
   + 41 x_9_13 + 53 x_9_14 + 66 x_9_15 + 18 x_9_16 + 55 x_9_17 + 28 x_9_19
   + 64 x_10_14 + 74 x_10_15 + 65 x_10_19 + 54 x_11_14 + 67 x_11_15
   + 23 x_11_16 + 55 x_11_17 + 43 x_12_16 + 67 x_12_17 + 38 x_12_19
   + 33 x_13_14 + 28 x_13_16 + 86 x_13_17 + 36 x_14_16 + 107 x_14_17
   + 47 x_14_18 + 14 x_16_18 + 61 x_17_18 + 83 x_17_19 + 124 Constant
Subject To
 c_0: y_16 = 1
 c_1_0: y_0 >= 1
 c_1_1: y_1 >= 1
 c_1_2: y_2 >= 1
 c_1_3: y_3 >= 1
 c_1_4: y_4 >= 1
 c_1_5: y_5 >= 1
 c_1_6: y_6 >= 1
 c_1_7: y_7 >= 1
 c_1_8: y_8 + y_18 >= 1
 c_1_9: y_9 >= 1
 c_1_10: y_10 >= 1
 c_1_11: y_11 >= 1
 c_1_12: y_12 >= 1
 c_1_13: y_13 >= 1
 c_1_14: y_14 >= 1
 c_1_15: y_15 >= 1
 c_1_16: y_16 >= 1
 c_1_17: y_17 >= 1
 c_1_18: y_8 + y_18 >= 1
 c_1_19: y_19 >= 1
 c_2_0: - 2 y_0 + x_0_1 + x_0_5 + x_0_6 + x_0_7 + x_0_9 + x_0_11 + x_0_13
   + x_0_14 + x_0_16 + x_0_18 + x_0_19 = 0
 c_2_1: - 2 y_1 + x_0_1 + x_1_2 + x_1_5 + x_1_11 + x_1_13 + x_1_14 + x_1_18
   = 0
 c_2_2: - 2 y_2 + x_1_2 + x_2_3 + x_2_4 + x_2_5 + x_2_7 + x_2_9 + x_2_13
   + x_2_15 + x_2_16 + x_2_19 = 0
 c_2_3: - 2 y_3 + x_2_3 + x_3_4 + x_3_7 + x_3_9 + x_3_10 + x_3_11 + x_3_14
   + x_3_16 + x_3_17 + x_3_18 + x_3_19 = 0
 c_2_4: - 2 y_4 + x_2_4 + x_3_4 + x_4_6 + x_4_7 + x_4_8 + x_4_11 + x_4_13
   + x_4_15 + x_4_16 + x_4_17 + x_4_19 = 0
 c_2_5: - 2 y_5 + x_0_5 + x_1_5 + x_2_5 + x_5_6 + x_5_7 + x_5_9 + x_5_12
   + x_5_14 + x_5_18 = 0
 c_2_6: - 2 y_6 + x_0_6 + x_4_6 + x_5_6 + x_6_9 + x_6_10 + x_6_11 + x_6_12
   + x_6_14 + x_6_18 = 0
 c_2_7: - 2 y_7 + x_0_7 + x_2_7 + x_3_7 + x_4_7 + x_5_7 + x_7_8 + x_7_11
   + x_7_13 + x_7_17 + x_7_18 = 0
 c_2_8: - 2 y_8 + x_4_8 + x_7_8 + x_8_10 + x_8_11 + x_8_12 + x_8_13
   + x_8_17 + x_8_19 = 0
 c_2_9: - 2 y_9 + x_0_9 + x_2_9 + x_3_9 + x_5_9 + x_6_9 + x_9_10 + x_9_12
   + x_9_13 + x_9_14 + x_9_15 + x_9_16 + x_9_17 + x_9_19 = 0
 c_2_10: - 2 y_10 + x_3_10 + x_6_10 + x_8_10 + x_9_10 + x_10_14 + x_10_15
   + x_10_19 = 0
 c_2_11: - 2 y_11 + x_0_11 + x_1_11 + x_3_11 + x_4_11 + x_6_11 + x_7_11
   + x_8_11 + x_11_14 + x_11_15 + x_11_16 + x_11_17 = 0
 c_2_12: - 2 y_12 + x_5_12 + x_6_12 + x_8_12 + x_9_12 + x_12_16 + x_12_17
   + x_12_19 = 0
 c_2_13: - 2 y_13 + x_0_13 + x_1_13 + x_2_13 + x_4_13 + x_7_13 + x_8_13
   + x_9_13 + x_13_14 + x_13_16 + x_13_17 = 0
 c_2_14: - 2 y_14 + x_0_14 + x_1_14 + x_3_14 + x_5_14 + x_6_14 + x_9_14
   + x_10_14 + x_11_14 + x_13_14 + x_14_16 + x_14_17 + x_14_18 = 0
 c_2_15: - 2 y_15 + x_2_15 + x_4_15 + x_9_15 + x_10_15 + x_11_15 = 0
 c_2_16: - 2 y_16 + x_0_16 + x_2_16 + x_3_16 + x_4_16 + x_9_16 + x_11_16
   + x_12_16 + x_13_16 + x_14_16 + x_16_18 = 0
 c_2_17: - 2 y_17 + x_3_17 + x_4_17 + x_7_17 + x_8_17 + x_9_17 + x_11_17
   + x_12_17 + x_13_17 + x_14_17 + x_17_18 + x_17_19 = 0
 c_2_18: - 2 y_18 + x_0_18 + x_1_18 + x_3_18 + x_5_18 + x_6_18 + x_7_18
   + x_14_18 + x_16_18 + x_17_18 = 0
 c_2_19: - 2 y_19 + x_0_19 + x_2_19 + x_3_19 + x_4_19 + x_8_19 + x_9_19
   + x_10_19 + x_12_19 + x_17_19 = 0
Bounds
 Constant = 1
Binaries
 y_0 y_1 y_2 y_3 y_4 y_5 y_6 y_7 y_8 y_9 y_10 y_11 y_12 y_13 y_14 y_15 y_16
 y_17 y_18 y_19 x_0_1 x_0_5 x_0_6 x_0_7 x_0_9 x_0_11 x_0_13 x_0_14 x_0_16
 x_0_18 x_0_19 x_1_2 x_1_5 x_1_11 x_1_13 x_1_14 x_1_18 x_2_3 x_2_4 x_2_5
 x_2_7 x_2_9 x_2_13 x_2_15 x_2_16 x_2_19 x_3_4 x_3_7 x_3_9 x_3_10 x_3_11
 x_3_14 x_3_16 x_3_17 x_3_18 x_3_19 x_4_6 x_4_7 x_4_8 x_4_11 x_4_13 x_4_15
 x_4_16 x_4_17 x_4_19 x_5_6 x_5_7 x_5_9 x_5_12 x_5_14 x_5_18 x_6_9 x_6_10
 x_6_11 x_6_12 x_6_14 x_6_18 x_7_8 x_7_11 x_7_13 x_7_17 x_7_18 x_8_10
 x_8_11 x_8_12 x_8_13 x_8_17 x_8_19 x_9_10 x_9_12 x_9_13 x_9_14 x_9_15
 x_9_16 x_9_17 x_9_19 x_10_14 x_10_15 x_10_19 x_11_14 x_11_15 x_11_16
 x_11_17 x_12_16 x_12_17 x_12_19 x_13_14 x_13_16 x_13_17 x_14_16 x_14_17
 x_14_18 x_16_18 x_17_18 x_17_19
End
